32      4       
10      10      10      10      
0       0       0       0       0       2       2       15      
4       1       1       1       0       2       3       9       
7       4       5       3       0       3       4       30      31      
4       6       4       0       1       3       5       28      29      
1       2       3       4       0       3       6       13      26      
1       5       0       3       3       3       7       19      27      
10      5       0       6       2       1       8       
6       0       4       3       6       3       10      24      25      
6       2       0       9       2       2       12      26      
3       4       4       2       0       1       11      
1       4       3       0       7       1       12      
1       3       0       8       3       2       14      23      
1       0       3       2       5       2       14      23      
7       4       4       3       0       3       16      21      22      
6       4       7       0       9       2       17      21      
10      3       2       0       5       1       17      
8       0       5       2       5       1       18      
1       0       3       3       5       1       20      
1       3       0       2       2       1       20      
9       6       8       0       7       1       32      
3       3       0       5       4       1       32      
1       7       4       7       0       1       32      
1       4       0       3       4       1       32      
5       0       4       4       4       1       32      
5       0       4       1       4       1       32      
8       3       3       2       0       1       32      
10      5       0       9       3       1       32      
9       2       4       0       2       1       32      
6       5       3       0       1       1       32      
7       7       0       7       3       1       32      
6       0       6       3       5       1       32      
0       0       0       0       0       0       
